p cnf 692 2277
1 2 3 4 0
-1 -2 0
-1 -3 0
-1 -4 0
-2 -3 0
-2 -4 0
-3 -4 0
5 -6 -7 0
6 -5 -7 0
-5 -6 7 0
6 5 7 0
-1 -7 0
6 -5 -8 0
5 -6 -8 0
8 -6 -5 0
8 6 5 0
-2 8 0
-6 9 0
-5 9 0
6 5 -9 0
6 -9 -10 0
-6 9 -10 0
-6 -9 10 0
6 9 10 0
-3 10 0
5 11 0
6 11 0
-5 -6 -11 0
-6 11 -12 0
6 -11 -12 0
12 -11 -6 0
6 11 12 0
-4 -12 0
13 -14 -15 0
14 -13 -15 0
-13 -14 15 0
14 13 15 0
-1 -15 0
14 -16 -17 0
16 -14 -17 0
17 -14 -16 0
17 14 16 0
-2 17 0
-13 18 0
-16 18 0
-19 18 0
13 16 19 -18 0
14 -18 -20 0
-14 18 -20 0
-14 -18 20 0
14 18 20 0
-3 20 0
13 21 0
16 21 0
19 21 0
-13 -16 -19 -21 0
-14 21 -22 0
14 -21 -22 0
22 -21 -14 0
14 21 22 0
-4 -22 0
16 -23 -24 0
23 -16 -24 0
-16 -23 24 0
16 23 24 0
-1 -24 0
23 -19 -25 0
19 -23 -25 0
25 -23 -19 0
25 23 19 0
-2 25 0
-16 26 0
-19 26 0
16 19 -26 0
23 -26 -27 0
-23 26 -27 0
-23 -26 27 0
23 26 27 0
-3 27 0
16 28 0
19 28 0
-16 -19 -28 0
-23 28 -29 0
23 -28 -29 0
29 -28 -23 0
23 28 29 0
-4 -29 0
19 -30 -31 0
30 -19 -31 0
-19 -30 31 0
19 30 31 0
-1 -31 0
-16 30 -32 0
16 -30 -32 0
32 -30 -16 0
32 30 16 0
-2 32 0
-19 33 0
-23 33 0
19 23 -33 0
30 -33 -34 0
-30 33 -34 0
-30 -33 34 0
30 33 34 0
-3 34 0
19 35 0
23 35 0
-19 -23 -35 0
-30 35 -36 0
30 -35 -36 0
36 -35 -30 0
30 35 36 0
-4 -36 0
37 -38 -39 0
38 -37 -39 0
-37 -38 39 0
38 37 39 0
-1 -39 0
38 -40 -41 0
40 -38 -41 0
41 -38 -40 0
41 38 40 0
-2 41 0
-13 42 0
-16 42 0
-19 42 0
-37 42 0
-40 42 0
13 16 19 37 40 -42 0
38 -42 -43 0
-38 42 -43 0
-38 -42 43 0
38 42 43 0
-3 43 0
13 44 0
16 44 0
19 44 0
37 44 0
40 44 0
-45 0
-38 44 -46 0
38 -44 -46 0
46 -44 -38 0
38 44 46 0
-4 -46 0
40 -47 -48 0
47 -40 -48 0
-40 -47 48 0
40 47 48 0
-1 -48 0
-13 47 -49 0
13 -47 -49 0
49 -47 -13 0
49 47 13 0
-2 49 0
-13 50 0
-16 50 0
-19 50 0
-40 50 0
13 16 19 40 -50 0
47 -50 -51 0
-47 50 -51 0
-47 -50 51 0
47 50 51 0
-3 51 0
13 52 0
16 52 0
19 52 0
40 52 0
-53 0
-47 52 -54 0
47 -52 -54 0
54 -52 -47 0
47 52 54 0
-4 -54 0
55 -56 -57 0
56 -55 -57 0
-55 -56 57 0
56 55 57 0
-1 -57 0
56 -58 -59 0
58 -56 -59 0
59 -56 -58 0
59 56 58 0
-2 59 0
-55 60 0
-58 60 0
-61 60 0
-62 60 0
-63 60 0
-64 60 0
55 58 61 62 63 64 -60 0
56 -60 -65 0
-56 60 -65 0
-56 -60 65 0
56 60 65 0
-3 65 0
55 66 0
58 66 0
61 66 0
62 66 0
63 66 0
64 66 0
-67 0
-56 66 -68 0
56 -66 -68 0
68 -66 -56 0
56 66 68 0
-4 -68 0
58 -69 -70 0
69 -58 -70 0
-58 -69 70 0
58 69 70 0
-1 -70 0
69 -61 -71 0
61 -69 -71 0
71 -69 -61 0
71 69 61 0
-2 71 0
-58 72 0
-61 72 0
-62 72 0
-63 72 0
-64 72 0
58 61 62 63 64 -72 0
69 -72 -73 0
-69 72 -73 0
-69 -72 73 0
69 72 73 0
-3 73 0
58 74 0
61 74 0
62 74 0
63 74 0
64 74 0
-75 0
-69 74 -76 0
69 -74 -76 0
76 -74 -69 0
69 74 76 0
-4 -76 0
61 -77 -78 0
77 -61 -78 0
-61 -77 78 0
61 77 78 0
-1 -78 0
77 -62 -79 0
62 -77 -79 0
79 -77 -62 0
79 77 62 0
-2 79 0
-61 80 0
-62 80 0
-63 80 0
-64 80 0
61 62 63 64 -80 0
77 -80 -81 0
-77 80 -81 0
-77 -80 81 0
77 80 81 0
-3 81 0
61 82 0
62 82 0
63 82 0
64 82 0
-83 0
-77 82 -84 0
77 -82 -84 0
84 -82 -77 0
77 82 84 0
-4 -84 0
62 -85 -86 0
85 -62 -86 0
-62 -85 86 0
62 85 86 0
-1 -86 0
85 -63 -87 0
63 -85 -87 0
87 -85 -63 0
87 85 63 0
-2 87 0
85 -80 -88 0
80 -85 -88 0
-80 -85 88 0
85 80 88 0
-3 88 0
82 -85 -89 0
85 -82 -89 0
89 -82 -85 0
85 82 89 0
-4 -89 0
63 -90 -91 0
90 -63 -91 0
-63 -90 91 0
63 90 91 0
-1 -91 0
90 -64 -92 0
64 -90 -92 0
92 -90 -64 0
92 90 64 0
-2 92 0
-63 93 0
-64 93 0
-61 93 0
-62 93 0
63 64 61 62 -93 0
90 -93 -94 0
-90 93 -94 0
-90 -93 94 0
90 93 94 0
-3 94 0
63 95 0
64 95 0
61 95 0
62 95 0
-96 0
-90 95 -97 0
90 -95 -97 0
97 -95 -90 0
90 95 97 0
-4 -97 0
64 -98 -99 0
98 -64 -99 0
-64 -98 99 0
64 98 99 0
-1 -99 0
-61 98 -100 0
61 -98 -100 0
100 -98 -61 0
100 98 61 0
-2 100 0
-64 101 0
-77 101 0
64 77 -101 0
98 -101 -102 0
-98 101 -102 0
-98 -101 102 0
98 101 102 0
-3 102 0
64 103 0
77 103 0
-64 -77 -103 0
-98 103 -104 0
98 -103 -104 0
104 -103 -98 0
98 103 104 0
-4 -104 0
105 -106 -107 0
106 -105 -107 0
-105 -106 107 0
106 105 107 0
-1 -107 0
106 -108 -109 0
108 -106 -109 0
109 -106 -108 0
109 106 108 0
-2 109 0
-105 110 0
-108 110 0
-111 110 0
-112 110 0
-113 110 0
-114 110 0
115 0
106 -110 -116 0
-106 110 -116 0
-106 -110 116 0
106 110 116 0
-3 116 0
105 117 0
108 117 0
111 117 0
112 117 0
113 117 0
114 117 0
-118 0
-106 117 -119 0
106 -117 -119 0
119 -117 -106 0
106 117 119 0
-4 -119 0
108 -120 -121 0
120 -108 -121 0
-108 -120 121 0
108 120 121 0
-1 -121 0
120 -111 -122 0
111 -120 -122 0
122 -120 -111 0
122 120 111 0
-2 122 0
-108 123 0
-111 123 0
-112 123 0
-113 123 0
-114 123 0
108 111 112 113 114 -123 0
120 -123 -124 0
-120 123 -124 0
-120 -123 124 0
120 123 124 0
-3 124 0
108 125 0
111 125 0
112 125 0
113 125 0
114 125 0
-126 0
-120 125 -127 0
120 -125 -127 0
127 -125 -120 0
120 125 127 0
-4 -127 0
111 -128 -129 0
128 -111 -129 0
-111 -128 129 0
111 128 129 0
-1 -129 0
128 -112 -130 0
112 -128 -130 0
130 -128 -112 0
130 128 112 0
-2 130 0
-111 131 0
-112 131 0
-113 131 0
-114 131 0
111 112 113 114 -131 0
128 -131 -132 0
-128 131 -132 0
-128 -131 132 0
128 131 132 0
-3 132 0
111 133 0
112 133 0
113 133 0
114 133 0
-134 0
-128 133 -135 0
128 -133 -135 0
135 -133 -128 0
128 133 135 0
-4 -135 0
112 -136 -137 0
136 -112 -137 0
-112 -136 137 0
112 136 137 0
-1 -137 0
136 -113 -138 0
113 -136 -138 0
138 -136 -113 0
138 136 113 0
-2 138 0
136 -131 -139 0
131 -136 -139 0
-131 -136 139 0
136 131 139 0
-3 139 0
133 -136 -140 0
136 -133 -140 0
140 -133 -136 0
136 133 140 0
-4 -140 0
113 -141 -142 0
141 -113 -142 0
-113 -141 142 0
113 141 142 0
-1 -142 0
141 -114 -143 0
114 -141 -143 0
143 -141 -114 0
143 141 114 0
-2 143 0
141 -131 -144 0
131 -141 -144 0
-131 -141 144 0
141 131 144 0
-3 144 0
133 -141 -145 0
141 -133 -145 0
145 -133 -141 0
141 133 145 0
-4 -145 0
114 -146 -147 0
146 -114 -147 0
-114 -146 147 0
114 146 147 0
-1 -147 0
-111 146 -148 0
111 -146 -148 0
148 -146 -111 0
148 146 111 0
-2 148 0
-114 149 0
-128 149 0
114 128 -149 0
146 -149 -150 0
-146 149 -150 0
-146 -149 150 0
146 149 150 0
-3 150 0
114 151 0
128 151 0
-114 -128 -151 0
-146 151 -152 0
146 -151 -152 0
152 -151 -146 0
146 151 152 0
-4 -152 0
153 -154 -155 0
154 -153 -155 0
-153 -154 155 0
154 153 155 0
-1 -155 0
154 -156 -157 0
156 -154 -157 0
157 -154 -156 0
157 154 156 0
-2 157 0
-5 158 0
-153 158 0
-156 158 0
-159 158 0
5 153 156 159 -158 0
154 -158 -160 0
-154 158 -160 0
-154 -158 160 0
154 158 160 0
-3 160 0
5 161 0
153 161 0
156 161 0
159 161 0
-162 0
-154 161 -163 0
154 -161 -163 0
163 -161 -154 0
154 161 163 0
-4 -163 0
156 -164 -165 0
164 -156 -165 0
-156 -164 165 0
156 164 165 0
-1 -165 0
164 -159 -166 0
159 -164 -166 0
166 -164 -159 0
166 164 159 0
-2 166 0
-5 167 0
-156 167 0
-159 167 0
5 156 159 -167 0
164 -167 -168 0
-164 167 -168 0
-164 -167 168 0
164 167 168 0
-3 168 0
5 169 0
156 169 0
159 169 0
-5 -156 -159 -169 0
-164 169 -170 0
164 -169 -170 0
170 -169 -164 0
164 169 170 0
-4 -170 0
159 -171 -172 0
171 -159 -172 0
-159 -171 172 0
159 171 172 0
-1 -172 0
-5 171 -173 0
5 -171 -173 0
173 -171 -5 0
173 171 5 0
-2 173 0
-5 174 0
-159 174 0
5 159 -174 0
171 -174 -175 0
-171 174 -175 0
-171 -174 175 0
171 174 175 0
-3 175 0
5 176 0
159 176 0
-5 -159 -176 0
-171 176 -177 0
171 -176 -177 0
177 -176 -171 0
171 176 177 0
-4 -177 0
178 -179 -180 0
179 -178 -180 0
-178 -179 180 0
179 178 180 0
-1 -180 0
179 -181 -182 0
181 -179 -182 0
182 -179 -181 0
182 179 181 0
-2 182 0
-178 183 0
-181 183 0
-184 183 0
-185 183 0
-186 183 0
-187 183 0
188 0
179 -183 -189 0
-179 183 -189 0
-179 -183 189 0
179 183 189 0
-3 189 0
178 190 0
181 190 0
184 190 0
185 190 0
186 190 0
187 190 0
-191 0
-179 190 -192 0
179 -190 -192 0
192 -190 -179 0
179 190 192 0
-4 -192 0
181 -193 -194 0
193 -181 -194 0
-181 -193 194 0
181 193 194 0
-1 -194 0
193 -184 -195 0
184 -193 -195 0
195 -193 -184 0
195 193 184 0
-2 195 0
-181 196 0
-184 196 0
-185 196 0
-186 196 0
-187 196 0
181 184 185 186 187 -196 0
193 -196 -197 0
-193 196 -197 0
-193 -196 197 0
193 196 197 0
-3 197 0
181 198 0
184 198 0
185 198 0
186 198 0
187 198 0
-199 0
-193 198 -200 0
193 -198 -200 0
200 -198 -193 0
193 198 200 0
-4 -200 0
184 -201 -202 0
201 -184 -202 0
-184 -201 202 0
184 201 202 0
-1 -202 0
201 -185 -203 0
185 -201 -203 0
203 -201 -185 0
203 201 185 0
-2 203 0
-184 204 0
-185 204 0
-186 204 0
-187 204 0
184 185 186 187 -204 0
201 -204 -205 0
-201 204 -205 0
-201 -204 205 0
201 204 205 0
-3 205 0
184 206 0
185 206 0
186 206 0
187 206 0
-207 0
-201 206 -208 0
201 -206 -208 0
208 -206 -201 0
201 206 208 0
-4 -208 0
185 -209 -210 0
209 -185 -210 0
-185 -209 210 0
185 209 210 0
-1 -210 0
209 -186 -211 0
186 -209 -211 0
211 -209 -186 0
211 209 186 0
-2 211 0
-185 212 0
-186 212 0
-187 212 0
185 186 187 -212 0
209 -212 -213 0
-209 212 -213 0
-209 -212 213 0
209 212 213 0
-3 213 0
185 214 0
186 214 0
187 214 0
-185 -186 -187 -214 0
-209 214 -215 0
209 -214 -215 0
215 -214 -209 0
209 214 215 0
-4 -215 0
186 -216 -217 0
216 -186 -217 0
-186 -216 217 0
186 216 217 0
-1 -217 0
216 -187 -218 0
187 -216 -218 0
218 -216 -187 0
218 216 187 0
-2 218 0
216 -212 -219 0
212 -216 -219 0
-212 -216 219 0
216 212 219 0
-3 219 0
214 -216 -220 0
216 -214 -220 0
220 -214 -216 0
216 214 220 0
-4 -220 0
187 -221 -222 0
221 -187 -222 0
-187 -221 222 0
187 221 222 0
-1 -222 0
-185 221 -223 0
185 -221 -223 0
223 -221 -185 0
223 221 185 0
-2 223 0
-187 224 0
-209 224 0
187 209 -224 0
221 -224 -225 0
-221 224 -225 0
-221 -224 225 0
221 224 225 0
-3 225 0
187 226 0
209 226 0
-187 -209 -226 0
-221 226 -227 0
221 -226 -227 0
227 -226 -221 0
221 226 227 0
-4 -227 0
228 -229 -230 0
229 -228 -230 0
-228 -229 230 0
229 228 230 0
-1 -230 0
229 -231 -232 0
231 -229 -232 0
232 -229 -231 0
232 229 231 0
-2 232 0
-5 233 0
-156 233 0
-159 233 0
-228 233 0
-231 233 0
5 156 159 228 231 -233 0
229 -233 -234 0
-229 233 -234 0
-229 -233 234 0
229 233 234 0
-3 234 0
5 235 0
156 235 0
159 235 0
228 235 0
231 235 0
-236 0
-229 235 -237 0
229 -235 -237 0
237 -235 -229 0
229 235 237 0
-4 -237 0
231 -238 -239 0
238 -231 -239 0
-231 -238 239 0
231 238 239 0
-1 -239 0
-156 238 -240 0
156 -238 -240 0
240 -238 -156 0
240 238 156 0
-2 240 0
-5 241 0
-156 241 0
-159 241 0
-231 241 0
5 156 159 231 -241 0
238 -241 -242 0
-238 241 -242 0
-238 -241 242 0
238 241 242 0
-3 242 0
5 243 0
156 243 0
159 243 0
231 243 0
-244 0
-238 243 -245 0
238 -243 -245 0
245 -243 -238 0
238 243 245 0
-4 -245 0
246 -247 -248 0
247 -246 -248 0
-246 -247 248 0
247 246 248 0
-1 -248 0
247 -249 -250 0
249 -247 -250 0
250 -247 -249 0
250 247 249 0
-2 250 0
-184 251 0
-185 251 0
-186 251 0
-187 251 0
-246 251 0
-249 251 0
252 0
247 -251 -253 0
-247 251 -253 0
-247 -251 253 0
247 251 253 0
-3 253 0
184 254 0
185 254 0
186 254 0
187 254 0
246 254 0
249 254 0
-255 0
-247 254 -256 0
247 -254 -256 0
256 -254 -247 0
247 254 256 0
-4 -256 0
249 -257 -258 0
257 -249 -258 0
-249 -257 258 0
249 257 258 0
-1 -258 0
-184 257 -259 0
184 -257 -259 0
259 -257 -184 0
259 257 184 0
-2 259 0
-184 260 0
-185 260 0
-186 260 0
-187 260 0
-249 260 0
184 185 186 187 249 -260 0
257 -260 -261 0
-257 260 -261 0
-257 -260 261 0
257 260 261 0
-3 261 0
184 262 0
185 262 0
186 262 0
187 262 0
249 262 0
-263 0
-257 262 -264 0
257 -262 -264 0
264 -262 -257 0
257 262 264 0
-4 -264 0
265 -266 -267 0
266 -265 -267 0
-265 -266 267 0
266 265 267 0
-1 -267 0
266 -268 -269 0
268 -266 -269 0
269 -266 -268 0
269 266 268 0
-2 269 0
-111 270 0
-112 270 0
-113 270 0
-114 270 0
-265 270 0
-268 270 0
-271 270 0
-272 270 0
273 0
266 -270 -274 0
-266 270 -274 0
-266 -270 274 0
266 270 274 0
-3 274 0
111 275 0
112 275 0
113 275 0
114 275 0
265 275 0
268 275 0
271 275 0
272 275 0
-276 0
-266 275 -277 0
266 -275 -277 0
277 -275 -266 0
266 275 277 0
-4 -277 0
268 -278 -279 0
278 -268 -279 0
-268 -278 279 0
268 278 279 0
-1 -279 0
278 -271 -280 0
271 -278 -280 0
280 -278 -271 0
280 278 271 0
-2 280 0
-111 281 0
-112 281 0
-113 281 0
-114 281 0
-268 281 0
-271 281 0
-272 281 0
282 0
278 -281 -283 0
-278 281 -283 0
-278 -281 283 0
278 281 283 0
-3 283 0
111 284 0
112 284 0
113 284 0
114 284 0
268 284 0
271 284 0
272 284 0
-285 0
-278 284 -286 0
278 -284 -286 0
286 -284 -278 0
278 284 286 0
-4 -286 0
271 -287 -288 0
287 -271 -288 0
-271 -287 288 0
271 287 288 0
-1 -288 0
287 -272 -289 0
272 -287 -289 0
289 -287 -272 0
289 287 272 0
-2 289 0
-111 290 0
-112 290 0
-113 290 0
-114 290 0
-271 290 0
-272 290 0
291 0
287 -290 -292 0
-287 290 -292 0
-287 -290 292 0
287 290 292 0
-3 292 0
111 293 0
112 293 0
113 293 0
114 293 0
271 293 0
272 293 0
-294 0
-287 293 -295 0
287 -293 -295 0
295 -293 -287 0
287 293 295 0
-4 -295 0
272 -296 -297 0
296 -272 -297 0
-272 -296 297 0
272 296 297 0
-1 -297 0
-112 296 -298 0
112 -296 -298 0
298 -296 -112 0
298 296 112 0
-2 298 0
-111 299 0
-112 299 0
-113 299 0
-114 299 0
-272 299 0
111 112 113 114 272 -299 0
296 -299 -300 0
-296 299 -300 0
-296 -299 300 0
296 299 300 0
-3 300 0
111 301 0
112 301 0
113 301 0
114 301 0
272 301 0
-302 0
-296 301 -303 0
296 -301 -303 0
303 -301 -296 0
296 301 303 0
-4 -303 0
304 -305 -306 0
305 -304 -306 0
-304 -305 306 0
305 304 306 0
-1 -306 0
305 -307 -308 0
307 -305 -308 0
308 -305 -307 0
308 305 307 0
-2 308 0
-16 309 0
-19 309 0
-304 309 0
-307 309 0
-310 309 0
16 19 304 307 310 -309 0
305 -309 -311 0
-305 309 -311 0
-305 -309 311 0
305 309 311 0
-3 311 0
16 312 0
19 312 0
304 312 0
307 312 0
310 312 0
-313 0
-305 312 -314 0
305 -312 -314 0
314 -312 -305 0
305 312 314 0
-4 -314 0
307 -315 -316 0
315 -307 -316 0
-307 -315 316 0
307 315 316 0
-1 -316 0
315 -310 -317 0
310 -315 -317 0
317 -315 -310 0
317 315 310 0
-2 317 0
-16 318 0
-19 318 0
-307 318 0
-310 318 0
16 19 307 310 -318 0
315 -318 -319 0
-315 318 -319 0
-315 -318 319 0
315 318 319 0
-3 319 0
16 320 0
19 320 0
307 320 0
310 320 0
-321 0
-315 320 -322 0
315 -320 -322 0
322 -320 -315 0
315 320 322 0
-4 -322 0
310 -323 -324 0
323 -310 -324 0
-310 -323 324 0
310 323 324 0
-1 -324 0
-19 323 -325 0
19 -323 -325 0
325 -323 -19 0
325 323 19 0
-2 325 0
-16 326 0
-19 326 0
-310 326 0
16 19 310 -326 0
323 -326 -327 0
-323 326 -327 0
-323 -326 327 0
323 326 327 0
-3 327 0
16 328 0
19 328 0
310 328 0
-16 -19 -310 -328 0
-323 328 -329 0
323 -328 -329 0
329 -328 -323 0
323 328 329 0
-4 -329 0
330 -331 -332 0
331 -330 -332 0
-330 -331 332 0
331 330 332 0
-1 -332 0
331 -333 -334 0
333 -331 -334 0
334 -331 -333 0
334 331 333 0
-2 334 0
-185 335 0
-186 335 0
-187 335 0
-330 335 0
-333 335 0
185 186 187 330 333 -335 0
331 -335 -336 0
-331 335 -336 0
-331 -335 336 0
331 335 336 0
-3 336 0
185 337 0
186 337 0
187 337 0
330 337 0
333 337 0
-338 0
-331 337 -339 0
331 -337 -339 0
339 -337 -331 0
331 337 339 0
-4 -339 0
333 -340 -341 0
340 -333 -341 0
-333 -340 341 0
333 340 341 0
-1 -341 0
-187 340 -342 0
187 -340 -342 0
342 -340 -187 0
342 340 187 0
-2 342 0
-185 343 0
-186 343 0
-187 343 0
-333 343 0
185 186 187 333 -343 0
340 -343 -344 0
-340 343 -344 0
-340 -343 344 0
340 343 344 0
-3 344 0
185 345 0
186 345 0
187 345 0
333 345 0
-346 0
-340 345 -347 0
340 -345 -347 0
347 -345 -340 0
340 345 347 0
-4 -347 0
348 -349 -350 0
349 -348 -350 0
-348 -349 350 0
349 348 350 0
-1 -350 0
-40 349 -351 0
40 -349 -351 0
351 -349 -40 0
351 349 40 0
-2 351 0
-13 352 0
-16 352 0
-19 352 0
-40 352 0
-348 352 0
13 16 19 40 348 -352 0
349 -352 -353 0
-349 352 -353 0
-349 -352 353 0
349 352 353 0
-3 353 0
13 354 0
16 354 0
19 354 0
40 354 0
348 354 0
-355 0
-349 354 -356 0
349 -354 -356 0
356 -354 -349 0
349 354 356 0
-4 -356 0
357 -358 -359 0
358 -357 -359 0
-357 -358 359 0
358 357 359 0
-1 -359 0
358 -360 -361 0
360 -358 -361 0
361 -358 -360 0
361 358 360 0
-2 361 0
-357 362 0
-360 362 0
-363 362 0
-364 362 0
-365 362 0
-366 362 0
-367 362 0
368 0
358 -362 -369 0
-358 362 -369 0
-358 -362 369 0
358 362 369 0
-3 369 0
357 370 0
360 370 0
363 370 0
364 370 0
365 370 0
366 370 0
367 370 0
-371 0
-358 370 -372 0
358 -370 -372 0
372 -370 -358 0
358 370 372 0
-4 -372 0
360 -373 -374 0
373 -360 -374 0
-360 -373 374 0
360 373 374 0
-1 -374 0
373 -363 -375 0
363 -373 -375 0
375 -373 -363 0
375 373 363 0
-2 375 0
-360 376 0
-363 376 0
-364 376 0
-365 376 0
-366 376 0
-367 376 0
377 0
373 -376 -378 0
-373 376 -378 0
-373 -376 378 0
373 376 378 0
-3 378 0
360 379 0
363 379 0
364 379 0
365 379 0
366 379 0
367 379 0
-380 0
-373 379 -381 0
373 -379 -381 0
381 -379 -373 0
373 379 381 0
-4 -381 0
363 -382 -383 0
382 -363 -383 0
-363 -382 383 0
363 382 383 0
-1 -383 0
382 -364 -384 0
364 -382 -384 0
384 -382 -364 0
384 382 364 0
-2 384 0
-363 385 0
-364 385 0
-365 385 0
-366 385 0
-367 385 0
363 364 365 366 367 -385 0
382 -385 -386 0
-382 385 -386 0
-382 -385 386 0
382 385 386 0
-3 386 0
363 387 0
364 387 0
365 387 0
366 387 0
367 387 0
-388 0
-382 387 -389 0
382 -387 -389 0
389 -387 -382 0
382 387 389 0
-4 -389 0
364 -390 -391 0
390 -364 -391 0
-364 -390 391 0
364 390 391 0
-1 -391 0
390 -365 -392 0
365 -390 -392 0
392 -390 -365 0
392 390 365 0
-2 392 0
-364 393 0
-365 393 0
-366 393 0
-367 393 0
364 365 366 367 -393 0
390 -393 -394 0
-390 393 -394 0
-390 -393 394 0
390 393 394 0
-3 394 0
364 395 0
365 395 0
366 395 0
367 395 0
-396 0
-390 395 -397 0
390 -395 -397 0
397 -395 -390 0
390 395 397 0
-4 -397 0
365 -398 -399 0
398 -365 -399 0
-365 -398 399 0
365 398 399 0
-1 -399 0
398 -366 -400 0
366 -398 -400 0
400 -398 -366 0
400 398 366 0
-2 400 0
-365 401 0
-366 401 0
-367 401 0
365 366 367 -401 0
398 -401 -402 0
-398 401 -402 0
-398 -401 402 0
398 401 402 0
-3 402 0
365 403 0
366 403 0
367 403 0
-365 -366 -367 -403 0
-398 403 -404 0
398 -403 -404 0
404 -403 -398 0
398 403 404 0
-4 -404 0
366 -405 -406 0
405 -366 -406 0
-366 -405 406 0
366 405 406 0
-1 -406 0
405 -367 -407 0
367 -405 -407 0
407 -405 -367 0
407 405 367 0
-2 407 0
405 -401 -408 0
401 -405 -408 0
-401 -405 408 0
405 401 408 0
-3 408 0
403 -405 -409 0
405 -403 -409 0
409 -403 -405 0
405 403 409 0
-4 -409 0
367 -410 -411 0
410 -367 -411 0
-367 -410 411 0
367 410 411 0
-1 -411 0
-365 410 -412 0
365 -410 -412 0
412 -410 -365 0
412 410 365 0
-2 412 0
-367 413 0
-398 413 0
367 398 -413 0
410 -413 -414 0
-410 413 -414 0
-410 -413 414 0
410 413 414 0
-3 414 0
367 415 0
398 415 0
-367 -398 -415 0
-410 415 -416 0
410 -415 -416 0
416 -415 -410 0
410 415 416 0
-4 -416 0
417 -418 -419 0
418 -417 -419 0
-417 -418 419 0
418 417 419 0
-1 -419 0
418 -420 -421 0
420 -418 -421 0
421 -418 -420 0
421 418 420 0
-2 421 0
-61 422 0
-62 422 0
-63 422 0
-64 422 0
-417 422 0
-420 422 0
-423 422 0
-424 422 0
425 0
418 -422 -426 0
-418 422 -426 0
-418 -422 426 0
418 422 426 0
-3 426 0
61 427 0
62 427 0
63 427 0
64 427 0
417 427 0
420 427 0
423 427 0
424 427 0
-428 0
-418 427 -429 0
418 -427 -429 0
429 -427 -418 0
418 427 429 0
-4 -429 0
420 -430 -431 0
430 -420 -431 0
-420 -430 431 0
420 430 431 0
-1 -431 0
430 -423 -432 0
423 -430 -432 0
432 -430 -423 0
432 430 423 0
-2 432 0
-61 433 0
-62 433 0
-63 433 0
-64 433 0
-420 433 0
-423 433 0
-424 433 0
434 0
430 -433 -435 0
-430 433 -435 0
-430 -433 435 0
430 433 435 0
-3 435 0
61 436 0
62 436 0
63 436 0
64 436 0
420 436 0
423 436 0
424 436 0
-437 0
-430 436 -438 0
430 -436 -438 0
438 -436 -430 0
430 436 438 0
-4 -438 0
423 -439 -440 0
439 -423 -440 0
-423 -439 440 0
423 439 440 0
-1 -440 0
439 -424 -441 0
424 -439 -441 0
441 -439 -424 0
441 439 424 0
-2 441 0
-61 442 0
-62 442 0
-63 442 0
-64 442 0
-423 442 0
-424 442 0
61 62 63 64 423 424 -442 0
439 -442 -443 0
-439 442 -443 0
-439 -442 443 0
439 442 443 0
-3 443 0
61 444 0
62 444 0
63 444 0
64 444 0
423 444 0
424 444 0
-445 0
-439 444 -446 0
439 -444 -446 0
446 -444 -439 0
439 444 446 0
-4 -446 0
424 -447 -448 0
447 -424 -448 0
-424 -447 448 0
424 447 448 0
-1 -448 0
-64 447 -449 0
64 -447 -449 0
449 -447 -64 0
449 447 64 0
-2 449 0
-61 450 0
-62 450 0
-63 450 0
-64 450 0
-424 450 0
61 62 63 64 424 -450 0
447 -450 -451 0
-447 450 -451 0
-447 -450 451 0
447 450 451 0
-3 451 0
61 452 0
62 452 0
63 452 0
64 452 0
424 452 0
-453 0
-447 452 -454 0
447 -452 -454 0
454 -452 -447 0
447 452 454 0
-4 -454 0
455 -456 -457 0
456 -455 -457 0
-455 -456 457 0
456 455 457 0
-1 -457 0
456 -458 -459 0
458 -456 -459 0
459 -456 -458 0
459 456 458 0
-2 459 0
-61 460 0
-62 460 0
-63 460 0
-64 460 0
-455 460 0
-458 460 0
61 62 63 64 455 458 -460 0
456 -460 -461 0
-456 460 -461 0
-456 -460 461 0
456 460 461 0
-3 461 0
61 462 0
62 462 0
63 462 0
64 462 0
455 462 0
458 462 0
-463 0
-456 462 -464 0
456 -462 -464 0
464 -462 -456 0
456 462 464 0
-4 -464 0
458 -465 -466 0
465 -458 -466 0
-458 -465 466 0
458 465 466 0
-1 -466 0
-62 465 -467 0
62 -465 -467 0
467 -465 -62 0
467 465 62 0
-2 467 0
-61 468 0
-62 468 0
-63 468 0
-64 468 0
-458 468 0
61 62 63 64 458 -468 0
465 -468 -469 0
-465 468 -469 0
-465 -468 469 0
465 468 469 0
-3 469 0
61 470 0
62 470 0
63 470 0
64 470 0
458 470 0
-471 0
-465 470 -472 0
465 -470 -472 0
472 -470 -465 0
465 470 472 0
-4 -472 0
473 -474 -475 0
474 -473 -475 0
-473 -474 475 0
474 473 475 0
-1 -475 0
474 -476 -477 0
476 -474 -477 0
477 -474 -476 0
477 474 476 0
-2 477 0
-185 478 0
-186 478 0
-187 478 0
-473 478 0
-476 478 0
-479 478 0
480 0
474 -478 -481 0
-474 478 -481 0
-474 -478 481 0
474 478 481 0
-3 481 0
185 482 0
186 482 0
187 482 0
473 482 0
476 482 0
479 482 0
-483 0
-474 482 -484 0
474 -482 -484 0
484 -482 -474 0
474 482 484 0
-4 -484 0
476 -485 -486 0
485 -476 -486 0
-476 -485 486 0
476 485 486 0
-1 -486 0
485 -479 -487 0
479 -485 -487 0
487 -485 -479 0
487 485 479 0
-2 487 0
-185 488 0
-186 488 0
-187 488 0
-476 488 0
-479 488 0
185 186 187 476 479 -488 0
485 -488 -489 0
-485 488 -489 0
-485 -488 489 0
485 488 489 0
-3 489 0
185 490 0
186 490 0
187 490 0
476 490 0
479 490 0
-491 0
-485 490 -492 0
485 -490 -492 0
492 -490 -485 0
485 490 492 0
-4 -492 0
479 -493 -494 0
493 -479 -494 0
-479 -493 494 0
479 493 494 0
-1 -494 0
-186 493 -495 0
186 -493 -495 0
495 -493 -186 0
495 493 186 0
-2 495 0
-185 496 0
-186 496 0
-187 496 0
-479 496 0
185 186 187 479 -496 0
493 -496 -497 0
-493 496 -497 0
-493 -496 497 0
493 496 497 0
-3 497 0
185 498 0
186 498 0
187 498 0
479 498 0
-499 0
-493 498 -500 0
493 -498 -500 0
500 -498 -493 0
493 498 500 0
-4 -500 0
501 -502 -503 0
502 -501 -503 0
-501 -502 503 0
502 501 503 0
-1 -503 0
502 -504 -505 0
504 -502 -505 0
505 -502 -504 0
505 502 504 0
-2 505 0
-501 506 0
-504 506 0
-507 506 0
-508 506 0
501 504 507 508 -506 0
502 -506 -509 0
-502 506 -509 0
-502 -506 509 0
502 506 509 0
-3 509 0
501 510 0
504 510 0
507 510 0
508 510 0
-511 0
-502 510 -512 0
502 -510 -512 0
512 -510 -502 0
502 510 512 0
-4 -512 0
504 -513 -514 0
513 -504 -514 0
-504 -513 514 0
504 513 514 0
-1 -514 0
513 -507 -515 0
507 -513 -515 0
515 -513 -507 0
515 513 507 0
-2 515 0
-504 516 0
-507 516 0
-508 516 0
504 507 508 -516 0
513 -516 -517 0
-513 516 -517 0
-513 -516 517 0
513 516 517 0
-3 517 0
504 518 0
507 518 0
508 518 0
-504 -507 -508 -518 0
-513 518 -519 0
513 -518 -519 0
519 -518 -513 0
513 518 519 0
-4 -519 0
507 -520 -521 0
520 -507 -521 0
-507 -520 521 0
507 520 521 0
-1 -521 0
520 -508 -522 0
508 -520 -522 0
522 -520 -508 0
522 520 508 0
-2 522 0
-507 523 0
-508 523 0
507 508 -523 0
520 -523 -524 0
-520 523 -524 0
-520 -523 524 0
520 523 524 0
-3 524 0
507 525 0
508 525 0
-507 -508 -525 0
-520 525 -526 0
520 -525 -526 0
526 -525 -520 0
520 525 526 0
-4 -526 0
508 -527 -528 0
527 -508 -528 0
-508 -527 528 0
508 527 528 0
-1 -528 0
-507 527 -529 0
507 -527 -529 0
529 -527 -507 0
529 527 507 0
-2 529 0
-508 530 0
-520 530 0
508 520 -530 0
527 -530 -531 0
-527 530 -531 0
-527 -530 531 0
527 530 531 0
-3 531 0
508 532 0
520 532 0
-508 -520 -532 0
-527 532 -533 0
527 -532 -533 0
533 -532 -527 0
527 532 533 0
-4 -533 0
534 -535 -536 0
535 -534 -536 0
-534 -535 536 0
535 534 536 0
-1 -536 0
535 -537 -538 0
537 -535 -538 0
538 -535 -537 0
538 535 537 0
-2 538 0
-534 539 0
-537 539 0
-540 539 0
-541 539 0
534 537 540 541 -539 0
535 -539 -542 0
-535 539 -542 0
-535 -539 542 0
535 539 542 0
-3 542 0
534 543 0
537 543 0
540 543 0
541 543 0
-544 0
-535 543 -545 0
535 -543 -545 0
545 -543 -535 0
535 543 545 0
-4 -545 0
537 -546 -547 0
546 -537 -547 0
-537 -546 547 0
537 546 547 0
-1 -547 0
546 -540 -548 0
540 -546 -548 0
548 -546 -540 0
548 546 540 0
-2 548 0
546 -539 -549 0
539 -546 -549 0
-539 -546 549 0
546 539 549 0
-3 549 0
543 -546 -550 0
546 -543 -550 0
550 -543 -546 0
546 543 550 0
-4 -550 0
540 -551 -552 0
551 -540 -552 0
-540 -551 552 0
540 551 552 0
-1 -552 0
551 -541 -553 0
541 -551 -553 0
553 -551 -541 0
553 551 541 0
-2 553 0
551 -539 -554 0
539 -551 -554 0
-539 -551 554 0
551 539 554 0
-3 554 0
543 -551 -555 0
551 -543 -555 0
555 -543 -551 0
551 543 555 0
-4 -555 0
541 -556 -557 0
556 -541 -557 0
-541 -556 557 0
541 556 557 0
-1 -557 0
-534 556 -558 0
534 -556 -558 0
558 -556 -534 0
558 556 534 0
-2 558 0
-535 559 0
-541 559 0
535 541 -559 0
556 -559 -560 0
-556 559 -560 0
-556 -559 560 0
556 559 560 0
-3 560 0
541 561 0
535 561 0
-541 -535 -561 0
-556 561 -562 0
556 -561 -562 0
562 -561 -556 0
556 561 562 0
-4 -562 0
-5 563 -564 0
5 -563 -564 0
-5 -563 564 0
5 563 564 0
-564 0
-13 565 -566 0
13 -565 -566 0
-13 -565 566 0
13 565 566 0
-566 0
-16 567 -568 0
16 -567 -568 0
-16 -567 568 0
16 567 568 0
-568 0
-19 569 -570 0
19 -569 -570 0
-19 -569 570 0
19 569 570 0
-570 0
-37 571 -572 0
37 -571 -572 0
-37 -571 572 0
37 571 572 0
-572 0
-40 573 -574 0
40 -573 -574 0
-40 -573 574 0
40 573 574 0
-574 0
-55 575 -576 0
55 -575 -576 0
-55 -575 576 0
55 575 576 0
-576 0
-58 577 -578 0
58 -577 -578 0
-58 -577 578 0
58 577 578 0
-578 0
-61 579 -580 0
61 -579 -580 0
-61 -579 580 0
61 579 580 0
-580 0
-62 581 -582 0
62 -581 -582 0
-62 -581 582 0
62 581 582 0
-582 0
-63 583 -584 0
63 -583 -584 0
-63 -583 584 0
63 583 584 0
-584 0
-64 585 -586 0
64 -585 -586 0
-64 -585 586 0
64 585 586 0
-586 0
-105 587 -588 0
105 -587 -588 0
-105 -587 588 0
105 587 588 0
-588 0
-108 589 -590 0
108 -589 -590 0
-108 -589 590 0
108 589 590 0
-590 0
-111 591 -592 0
111 -591 -592 0
-111 -591 592 0
111 591 592 0
-592 0
-112 593 -594 0
112 -593 -594 0
-112 -593 594 0
112 593 594 0
-594 0
-113 595 -596 0
113 -595 -596 0
-113 -595 596 0
113 595 596 0
-596 0
-114 597 -598 0
114 -597 -598 0
-114 -597 598 0
114 597 598 0
-598 0
-153 599 -600 0
153 -599 -600 0
-153 -599 600 0
153 599 600 0
-600 0
-156 601 -602 0
156 -601 -602 0
-156 -601 602 0
156 601 602 0
-602 0
-159 603 -604 0
159 -603 -604 0
-159 -603 604 0
159 603 604 0
-604 0
-178 605 -606 0
178 -605 -606 0
-178 -605 606 0
178 605 606 0
-606 0
-181 607 -608 0
181 -607 -608 0
-181 -607 608 0
181 607 608 0
-608 0
-184 609 -610 0
184 -609 -610 0
-184 -609 610 0
184 609 610 0
-610 0
-185 611 -612 0
185 -611 -612 0
-185 -611 612 0
185 611 612 0
-612 0
-186 613 -614 0
186 -613 -614 0
-186 -613 614 0
186 613 614 0
-614 0
-187 615 -616 0
187 -615 -616 0
-187 -615 616 0
187 615 616 0
-616 0
-228 617 -618 0
228 -617 -618 0
-228 -617 618 0
228 617 618 0
-618 0
-231 619 -620 0
231 -619 -620 0
-231 -619 620 0
231 619 620 0
-620 0
-246 621 -622 0
246 -621 -622 0
-246 -621 622 0
246 621 622 0
-622 0
-249 623 -624 0
249 -623 -624 0
-249 -623 624 0
249 623 624 0
-624 0
-265 625 -626 0
265 -625 -626 0
-265 -625 626 0
265 625 626 0
-626 0
-268 627 -628 0
268 -627 -628 0
-268 -627 628 0
268 627 628 0
-628 0
-271 629 -630 0
271 -629 -630 0
-271 -629 630 0
271 629 630 0
-630 0
-272 631 -632 0
272 -631 -632 0
-272 -631 632 0
272 631 632 0
-632 0
-304 633 -634 0
304 -633 -634 0
-304 -633 634 0
304 633 634 0
-634 0
-307 635 -636 0
307 -635 -636 0
-307 -635 636 0
307 635 636 0
-636 0
-310 637 -638 0
310 -637 -638 0
-310 -637 638 0
310 637 638 0
-638 0
-330 639 -640 0
330 -639 -640 0
-330 -639 640 0
330 639 640 0
-640 0
-333 641 -642 0
333 -641 -642 0
-333 -641 642 0
333 641 642 0
-642 0
-348 643 -644 0
348 -643 -644 0
-348 -643 644 0
348 643 644 0
-644 0
-357 645 -646 0
357 -645 -646 0
-357 -645 646 0
357 645 646 0
-646 0
-360 647 -648 0
360 -647 -648 0
-360 -647 648 0
360 647 648 0
-648 0
-363 649 -650 0
363 -649 -650 0
-363 -649 650 0
363 649 650 0
-650 0
-364 651 -652 0
364 -651 -652 0
-364 -651 652 0
364 651 652 0
-652 0
-365 653 -654 0
365 -653 -654 0
-365 -653 654 0
365 653 654 0
-654 0
-366 655 -656 0
366 -655 -656 0
-366 -655 656 0
366 655 656 0
-656 0
-367 657 -658 0
367 -657 -658 0
-367 -657 658 0
367 657 658 0
-658 0
-417 659 -660 0
417 -659 -660 0
-417 -659 660 0
417 659 660 0
-660 0
-420 661 -662 0
420 -661 -662 0
-420 -661 662 0
420 661 662 0
-662 0
-423 663 -664 0
423 -663 -664 0
-423 -663 664 0
423 663 664 0
-664 0
-424 665 -666 0
424 -665 -666 0
-424 -665 666 0
424 665 666 0
-666 0
-455 667 -668 0
455 -667 -668 0
-455 -667 668 0
455 667 668 0
-668 0
-458 669 -670 0
458 -669 -670 0
-458 -669 670 0
458 669 670 0
-670 0
-473 671 -672 0
473 -671 -672 0
-473 -671 672 0
473 671 672 0
-672 0
-476 673 -674 0
476 -673 -674 0
-476 -673 674 0
476 673 674 0
-674 0
-479 675 -676 0
479 -675 -676 0
-479 -675 676 0
479 675 676 0
-676 0
-501 677 -678 0
501 -677 -678 0
-501 -677 678 0
501 677 678 0
-678 0
-504 679 -680 0
504 -679 -680 0
-504 -679 680 0
504 679 680 0
-680 0
-507 681 -682 0
507 -681 -682 0
-507 -681 682 0
507 681 682 0
-682 0
-508 683 -684 0
508 -683 -684 0
-508 -683 684 0
508 683 684 0
-684 0
-534 685 -686 0
534 -685 -686 0
-534 -685 686 0
534 685 686 0
-686 0
-537 687 -688 0
537 -687 -688 0
-537 -687 688 0
537 687 688 0
-688 0
-540 689 -690 0
540 -689 -690 0
-540 -689 690 0
540 689 690 0
-690 0
-541 691 -692 0
541 -691 -692 0
-541 -691 692 0
541 691 692 0
-692 0
6 0
-14 0
-30 0
-38 0
-56 0
-98 0
-106 0
-154 0
-164 0
-179 0
-229 0
-247 0
-266 0
-305 0
-331 0
-349 0
-358 0
-418 0
-456 0
-474 0
-502 0
-520 0
-535 0
